language ESSENCE' 1.0
$ Minion SolverNodes: 967115
$ Minion SolverTotalTime: 97.0314
$ Minion SolverTimeOut: 0
$ Savile Row TotalTime: 2.928
letting carrying be [4, 4, 3, 3, 2, 2, 1, 1, 0, 0, 0, 0, 0, 0, 0, 0, 0, 0, 0, 1, 2, 3, 3, 2, 2, 1, 1, 0, 0, 2, 2, 1, 1, 0, 0, 1, 1, 0, 0, 0]
letting registers be [[-1, -1, -1, -1, -1, -1, -1, -1, -1, -1, 0, 0, 0, 0, 0, 0, 0, 0, 0, 1, 2, 3, 3, 2, 2, 1, 1, 1, 1, 2, 2, 1, 1, 1, 1, 1, 1, 1, 1, 1]]
letting steps be [1, 2, 1, 2, 1, 2, 1, 2, 1, 2, 4, 3, 3, 3, 3, 3, 3, 3, 3, 7, 7, 7, 2, 8, 2, 8, 2, 6, 2, 7, 2, 8, 2, 6, 2, 3, 2, 6, 2, 2]
